
Gurobi 9.1.1 (mac64, gurobi_cl) logging started Mon Feb 22 09:36:30 2021

Academic license - for non-commercial use only - expires 2021-04-06
Using license file /Users/agnese/gurobi.lic
Set parameter LogFile to value gurobi.log

Gurobi Optimizer version 9.1.1 build v9.1.1rc0 (mac64)
Copyright (c) 2020, Gurobi Optimization, LLC

Read LP format model from file /Users/agnese/Documents/KTH-Work/GitHub_repositories/KTH-dESA/GLUCOSE/results/2Degree2060/dataGLUCOSE_2Degree2060+Material_modified2.lp
Reading time = 0.45 seconds
cost: 55289 rows, 45900 columns, 520298 nonzeros
Thread count: 2 physical cores, 4 logical processors, using up to 4 threads
Optimize a model with 55289 rows, 45900 columns and 520298 nonzeros
Model fingerprint: 0xbe1fdcf8
Coefficient statistics:
  Matrix range     [2e-08, 6e+03]
  Objective range  [7e-08, 4e+11]
  Bounds range     [0e+00, 0e+00]
  RHS range        [1e-04, 1e+06]
Warning: Model contains large objective coefficients
         Consider reformulating model or setting NumericFocus parameter
         to avoid numerical issues.

Concurrent LP optimizer: dual simplex and barrier
Showing barrier log only...

Presolve removed 29482 rows and 27980 columns
Presolve time: 0.24s
Presolved: 25807 rows, 18042 columns, 362603 nonzeros

Ordering time: 1.33s

Barrier statistics:
 AA' NZ     : 1.362e+06
 Factor NZ  : 9.290e+06 (roughly 100 MBytes of memory)
 Factor Ops : 9.258e+09 (less than 1 second per iteration)
 Threads    : 1

                  Objective                Residual
Iter       Primal          Dual         Primal    Dual     Compl     Time
   0   5.03238273e+20 -3.34006455e+17  9.31e+08 2.08e+12  3.46e+16     3s
   1   2.66820677e+20 -4.79074723e+17  9.16e+08 1.98e+12  3.37e+16     3s
   2   3.72319577e+20 -1.42212908e+18  8.48e+08 1.39e+12  3.35e+16     4s
   3   1.41188919e+20 -3.61280706e+18  2.65e+08 4.46e+11  1.45e+16     5s
   4   3.20456623e+19 -3.86866653e+18  5.90e+07 2.29e+10  3.56e+15     5s
   5   3.34950953e+18 -2.78095625e+18  6.12e+06 2.15e+07  4.10e+14     6s
   6   1.20635565e+18 -2.02336855e+18  2.22e+06 1.04e+07  1.64e+14     7s
   7   1.02810997e+18 -1.57155158e+18  1.90e+06 7.27e+06  1.34e+14     8s
   8   5.48527661e+17 -8.77300356e+17  1.03e+06 2.33e+06  6.94e+13     9s
   9   8.51116794e+16 -3.56777722e+17  1.59e+05 3.71e+05  1.48e+13     9s
  10   2.99647749e+16 -1.16177095e+17  5.54e+04 8.88e+04  4.88e+12    10s
  11   8.98717878e+15 -2.71390942e+16  1.62e+04 1.41e+04  1.31e+12    11s
  12   3.95775285e+15 -6.67799061e+15  7.03e+03 2.18e+03  4.61e+11    12s
  13   8.36774810e+14 -3.76205311e+15  1.44e+03 1.00e+03  1.43e+11    13s
  14   4.63782628e+14 -1.69037317e+15  7.97e+02 3.44e+02  6.90e+10    14s
  15   1.24204670e+14 -5.22550070e+14  1.71e+02 7.15e+01  1.78e+10    14s
  16   4.53415190e+13 -2.05614307e+14  3.94e+01 2.05e+01  6.36e+09    15s
  17   9.41847954e+12 -6.96245818e+13  2.89e+00 4.66e+00  1.79e+09    16s
  18   3.30880736e+11 -6.77349579e+12  6.14e-02 9.16e-02  1.48e+08    17s
  19   2.19665623e+10 -6.52454557e+11  3.07e-08 3.66e-03  1.39e+07    18s
  20   8.74829345e+09 -1.24675581e+11  8.80e-09 9.77e-04  2.75e+06    19s
  21   4.53362080e+09 -2.23720111e+10  4.82e-09 2.44e-04  5.55e+05    20s
  22   3.19639538e+09 -1.18962620e+10  5.15e-09 2.44e-04  3.11e+05    20s
  23   1.88698601e+09 -4.90929873e+08  1.79e-09 4.88e-04  4.90e+04    21s
  24   1.50829505e+09  9.39925733e+08  1.00e-08 4.88e-04  1.17e+04    22s
  25   1.41353194e+09  1.34318725e+09  1.56e-08 2.44e-04  1.45e+03    23s
  26   1.39731962e+09  1.38464562e+09  4.51e-08 2.44e-04  2.61e+02    24s
  27   1.39504063e+09  1.39388945e+09  4.44e-09 2.44e-04  2.37e+01    25s
  28   1.39482215e+09  1.39451633e+09  8.93e-10 2.44e-04  6.31e+00    26s
  29   1.39477646e+09  1.39465530e+09  1.99e-09 4.88e-04  2.50e+00    27s
  30   1.39474318e+09  1.39469564e+09  3.39e-07 2.44e-04  9.80e-01    28s
  31   1.39472353e+09  1.39471314e+09  3.90e-08 4.88e-04  2.14e-01    29s
  32   1.39472088e+09  1.39471484e+09  2.33e-08 4.88e-04  1.25e-01    30s
  33   1.39471902e+09  1.39471677e+09  1.30e-08 2.44e-04  4.66e-02    31s
  34   1.39471773e+09  1.39471752e+09  1.47e-08 2.44e-04  4.58e-03    32s
  35   1.39471767e+09  1.39471760e+09  1.31e-08 4.88e-04  1.39e-03    33s
  36   1.39471763e+09  1.39471763e+09  2.59e-08 2.44e-04  1.78e-04    34s
  37   1.39471763e+09  1.39471763e+09  2.82e-08 4.88e-04  1.68e-05    35s
  38   1.39471763e+09  1.39471763e+09  3.00e-08 2.44e-04  5.49e-06    36s
  39   1.39471763e+09  1.39471763e+09  6.01e-09 2.44e-04  4.26e-07    37s
  40   1.39471763e+09  1.39471763e+09  2.06e-08 2.44e-04  2.90e-08    38s
  41   1.39471763e+09  1.39471763e+09  2.14e-08 2.44e-04  9.24e-09    38s

Barrier solved model in 41 iterations and 38.30 seconds
Optimal objective 1.39471763e+09

Crossover log...

    6469 DPushes remaining with DInf 0.0000000e+00                38s
       0 DPushes remaining with DInf 0.0000000e+00                39s

    3847 PPushes remaining with PInf 8.7174492e-04                39s
       0 PPushes remaining with PInf 0.0000000e+00                39s

  Push phase complete: Pinf 0.0000000e+00, Dinf 4.8901214e+00     39s

Iteration    Objective       Primal Inf.    Dual Inf.      Time
    7413    1.3947176e+09   0.000000e+00   4.890121e+00     39s
Extra simplex iterations after uncrush: 51
    7760    1.3947176e+09   0.000000e+00   0.000000e+00     39s

Solved with barrier
Solved in 7760 iterations and 39.19 seconds
Optimal objective  1.394717627e+09

No IIS available for current model

